p cnf 50 170
-5 3 0
-5 -4 0
-3 4 5 0
-6 -5 0
-6 -3 0
5 3 6 0
-7 -6 0
-7 -2 0
6 2 7 0
-8 -2 0
-8 -7 0
2 7 8 0
9 -1 0
9 -8 0
1 8 -9 0
-4 -10 -11 0
4 10 -11 0
-4 10 11 0
4 -10 11 0
13 12 0
13 -10 0
-12 10 -13 0
-15 13 0
-15 -14 0
-13 14 15 0
-11 15 -16 0
11 -15 -16 0
-11 -15 16 0
11 15 16 0
17 9 0
17 -16 0
-9 16 -17 0
18 -2 -19 0
-18 2 -19 0
18 2 19 0
-18 -2 19 0
-20 3 0
-20 19 0
-3 -19 20 0
-21 14 0
-21 -5 0
-14 5 21 0
-22 21 0
-22 -13 0
-21 13 22 0
-20 -22 -23 0
20 22 -23 0
-20 22 23 0
20 -22 23 0
24 -14 -25 0
-24 14 -25 0
24 14 25 0
-24 -14 25 0
26 -25 0
26 -24 0
25 24 -26 0
-27 26 0
-27 -21 0
-26 21 27 0
28 23 0
28 -27 0
-23 27 -28 0
7 -6 -29 0
-7 6 -29 0
7 6 29 0
-7 -6 29 0
-30 28 0
-30 29 0
-28 -29 30 0
-31 -3 0
-31 26 0
3 -26 31 0
-32 -30 0
-32 -31 0
30 31 32 0
-33 -7 0
-33 -5 0
7 5 33 0
34 -3 0
34 -4 0
3 4 -34 0
-35 33 0
-35 -34 0
-33 34 35 0
32 35 -36 0
-32 -35 -36 0
32 -35 36 0
-32 35 36 0
17 36 -37 0
-17 -36 -37 0
17 -36 37 0
-17 36 37 0
38 26 0
38 5 0
-26 -5 -38 0
39 21 0
39 -38 0
-21 38 -39 0
41 40 0
41 21 0
-40 -21 -41 0
42 -38 0
42 -5 0
38 5 -42 0
18 -42 -43 0
-18 42 -43 0
18 42 43 0
-18 -42 43 0
44 41 0
44 -43 0
-41 43 -44 0
45 -38 0
45 24 0
38 -24 -45 0
46 -8 0
46 -3 0
8 3 -46 0
47 -45 0
47 -46 0
45 46 -47 0
44 47 -48 0
-44 -47 -48 0
44 -47 48 0
-44 47 48 0
-49 -39 0
-49 -48 0
39 48 49 0
-50 37 0
-50 -49 0
-37 49 50 0
-34 -50 -33 19 -29 0
18 9 0
2 -7 0
-21 39 -16 0
21 41 20 -29 37 0
34 4 0
-15 -23 36 50 0
-15 16 33 0
45 -3 0
46 43 -11 0
27 -48 0
-5 42 35 -17 22 0
-45 10 9 0
47 38 0
50 -9 0
27 24 16 0
47 50 7 -30 0
2 47 20 -5 17 19 0
-16 -4 13 0
10 -31 48 29 -43 23 0
-39 6 -38 0
-39 -42 20 9 0
-33 11 0
-41 -16 -30 49 0
45 44 5 0
20 -50 28 0
27 -26 -28 -40 47 -10 0
28 -6 10 0
11 -33 29 -15 0
-12 -43 0
-13 -8 -15 -46 0
-24 -38 30 44 0
38 -36 0
41 46 -10 0
37 17 -12 39 0
45 48 22 -40 0
-50 49 47 0
-43 -21 0
50 25 1 0
50 0
